NAME : rc201.0.8537075.tour
COMMENT : Length = 8537075
COMMENT : Found by LKH [Keld Helsgaun] Tue May  2 05:49:38 2017
TYPE : TOUR
DIMENSION : 26
TOUR_SECTION
1
3
12
2
24
16
20
7
6
9
10
19
22
21
14
25
13
4
5
23
18
15
8
11
17
26
-1
EOF
